c 
c G(n,p) graph
c graph gen seed     : 28380
c number of vertices : 30
c max number of edges: 500
c edge probability   : 0.200000
c data structure     : sparse
c
c           Graph Stats
c number of vertices  : 30
c nonisolated vertices: 30
c number of edges     : 74
c edge density        : 0.170115
c max degree          : 10
c avg degree          : 4.93
c min degree          : 2
p col 30 74
e 1 28
e 1 22
e 1 13
e 1 8
e 1 7
e 1 6
e 1 4
e 2 22
e 2 21
e 2 17
e 2 7
e 3 12
e 3 7
e 3 4
e 4 9
e 4 5
e 5 30
e 5 28
e 5 26
e 5 14
e 6 25
e 6 24
e 6 16
e 6 15
e 7 28
e 7 23
e 7 20
e 7 17
e 8 19
e 8 16
e 8 13
e 9 22
e 9 17
e 10 29
e 10 25
e 10 22
e 10 21
e 10 14
e 11 29
e 11 25
e 11 20
e 11 16
e 12 26
e 12 22
e 12 20
e 12 13
e 13 20
e 14 28
e 14 25
e 14 20
e 15 17
e 16 28
e 16 23
e 16 20
e 16 18
e 16 17
e 17 27
e 17 26
e 17 22
e 18 19
e 19 30
e 20 30
e 20 29
e 20 27
e 20 26
e 21 25
e 22 27
e 22 25
e 23 30
e 23 24
e 24 30
e 24 28
e 24 26
e 25 30
